383 674
7372 5985 25332 11061 31416 22477 20582 7934 4665 17137 23364 30149 4863 28559 3543 25855 8121 27755 5994 3099 4651 17415 20734 13924 17792 28081 31295 29736 23266 20415 17078 20250 11337 14106 29503 7669 24976 26617 19390 15202 23502 11247 26894 9244 27363 296 18234 16466 337 20208 13296 23629 23118 17268 17714 5202 17943 16077 10319 14282 4230 28474 23826 26528 13799 685 12601 29675 23048 4490 4136 15565 13711 9899 31455 6810 28048 2215 15402 4413 2399 10324 11543 21208 31395 22666 7597 21931 27564 13098 13787 311 18439 20319 25263 13987 13135 11556 9161 14430 25157 31239 19726 13574 2595 4908 4257 31113 23086 26772 25871 3722 13195 9631 7113 17670 4947 17104 15320 30263 25322 25809 29900 31416 8844 11447 15861 7403 8744 23942 30166 2712 15474 31480 5591 2518 18484 17786 20026 29999 13284 14200 7760 17151 32636 26586 15597 7197 2182 30159 25881 17853 23670 25033 23304 25237 1341 30665 15693 20287 1051 11996 30282 7647 28341 8677 25067 29957 25191 1438 31636 21973 16859 16346 10327 3429 28891 1037 29035 21862 611 6413 17113 26631 3323 11290 633 2838 6467 21789 4893 22120 24272 12333 6156 14716 17206 12375 3250 1115 20326 3999 1173 30658 3899 66 10123 8323 3919 830 15915 553 27923 2068 25217 21723 11551 14797 10502 23171 19398 7483 21966 3887 15342 25729 29188 14519 18462 7126 21908 6560 2521 4997 31015 19264 27435 11064 9300 803 26241 25207 19476 18350 30910 21100 13687 22530 31114 29929 12438 19235 19949 23724 32713 10842 10526 17121 16154 2775 20373 3560 24569 27291 4199 13657 3377 21653 26835 10053 2842 4107 1560 4799 26640 24380 6538 15259 4389 4420 13029 15222 7955 27455 5345 21495 28533 11441 14343 13907 24118 13094 28610 25623 13129 277 26041 3362 6298 11274 24412 3824 11333 30212 445 31007 775 5660 1954 15147 12017 29800 7640 24445 7780 23839 22986 30628 26425 28414 32338 7650 21056 18666 718 12266 15084 15062 4215 9960 5964 32231 27118 12482 15421 14294 28952 28317 12767 19863 16172 31908 11333 18744 778 9988 31857 22283 6607 28731 3455 7687 5542 19603 16928 30572 9953 14057 17994 18854 6984 691 10542 2676 26544 3906 21355 11337 28624 16452 11649 31475 81 24460 2696 11130 12068 19478 11042 9035 5656 6725 27822 
! 190 2416
? 32244 48148
! 336 13133
? 5260 9907
! 285 24824
! 121 7566
! 140 10104
? 30573 42638
! 281 31928
! 187 21454
? 29485 35996
! 138 25858
! 3 4237
? 20882 24917
? 14882 29406
! 374 27908
! 13 28710
! 59 29706
? 25467 36593
? 23284 53507
? 7193 38120
? 25440 57803
! 102 29749
! 142 29911
? 8896 37189
? 16137 34482
! 206 2358
? 11378 28325
! 64 6200
! 218 5999
! 57 2257
? 27233 36384
! 147 10074
! 45 2188
? 31026 45130
! 376 6838
! 80 14000
? 15356 30067
! 223 12500
! 356 5386
! 213 27736
? 5424 23099
? 7843 40512
! 1 23748
! 35 2839
! 164 32634
! 91 31577
? 1679 26671
! 379 32488
! 129 13198
? 6416 15846
? 10127 24697
? 3076 15557
! 300 23593
! 349 26058
! 78 28568
? 2696 14383
! 118 5626
! 23 25067
? 11042 13762
? 20890 48783
! 7 17789
? 893 18661
! 370 20901
? 18720 35593
! 357 11577
? 5235 20742
? 26745 43061
? 29296 46816
! 82 28725
! 197 201
! 249 13985
? 5196 20862
? 467 16013
! 308 9888
! 250 20475
! 239 24800
? 21498 28489
! 367 6483
! 48 26891
! 151 26300
! 250 7666
? 12028 40556
? 22446 39976
! 225 18024
? 11124 38662
! 322 1220
! 124 24196
! 298 10482
? 26294 51851
! 51 1407
? 17452 37740
? 20622 43436
! 27 22280
! 314 22187
! 173 22354
? 8287 24406
! 66 3681
! 274 2003
! 348 29365
! 322 12946
! 354 8315
! 365 14830
? 16547 20098
! 102 12834
! 126 19986
? 7156 17279
! 17 14626
? 11276 29515
! 30 25342
! 40 14916
? 27551 57816
? 24969 35073
! 150 22381
! 340 22876
! 367 31800
! 55 23579
? 1119 12738
! 60 23994
! 229 3476
! 295 32060
? 3326 21364
! 150 22282
? 13159 28658
! 48 19468
? 17392 29110
? 22346 25977
? 30961 45746
! 128 14427
? 15479 20146
? 16234 45145
! 230 2325
! 156 7533
! 320 27908
? 21737 42947
? 17152 31677
! 16 16892
? 31817 35987
! 6 12156
! 339 30383
! 319 26510
! 205 6716
! 20 22979
! 204 8232
? 23234 53178
? 19736 21838
! 97 17585
! 355 10137
? 20925 23023
? 23381 49575
? 1242 22045
! 377 27839
! 181 31582
? 6237 28530
! 339 19877
? 26797 52133
! 50 10514
! 379 28530
! 308 4495
! 318 8683
? 28544 60268
! 148 8963
! 165 25602
? 15294 30738
? 21793 27256
! 19 15495
? 9852 15523
! 215 31028
? 837 6879
! 114 7837
? 22250 54896
! 334 19226
? 21101 45455
! 265 18626
? 27152 45431
! 106 8650
! 37 14098
! 205 23688
? 8831 18948
! 310 29207
? 28764 50531
! 290 7959
? 15615 20729
! 163 4094
? 811 11097
! 310 13033
! 357 29798
? 2004 16084
? 30018 48333
! 260 1473
! 234 23137
? 22515 46263
? 3281 6228
! 152 12012
? 22894 47758
! 96 10734
! 270 7852
? 31545 46324
! 365 8814
? 13499 27124
! 209 4566
! 379 6208
! 148 27846
! 299 23772
! 287 16216
? 15145 30064
? 30690 40621
! 110 23067
? 11155 13615
? 2686 3861
! 184 3061
? 28721 56154
! 104 16625
? 3012 12333
! 55 11894
? 6833 18936
? 28747 44243
! 252 31530
! 182 27239
? 26805 31183
? 24450 53842
! 63 7788
? 2984 16867
? 13332 36700
! 183 7417
! 177 10289
? 9858 41703
! 249 21336
! 166 12737
! 358 21338
? 867 28070
! 369 30407
! 289 17284
? 7896 16195
? 1863 26517
! 58 13933
! 169 3458
! 177 32390
! 376 28549
! 339 19472
? 29850 45323
? 20618 34088
? 32420 36537
? 4235 5843
! 35 15944
! 41 1795
? 31294 63370
? 15369 25246
? 10252 19789
! 185 21775
! 200 25280
? 5928 17639
! 317 27192
! 190 11051
? 24635 42740
? 6761 19671
? 20110 26801
? 3264 4551
! 141 24040
? 25018 32707
? 21591 36677
! 372 15387
! 333 13378
! 147 27604
? 18730 48295
? 28305 52457
! 47 22332
! 276 17988
! 229 17148
! 284 26932
? 4582 32531
? 11163 19006
! 367 21353
! 86 9429
! 288 26111
? 6521 13412
? 32625 45779
! 142 7066
? 4168 16735
! 63 30176
! 363 819
? 3221 30310
! 54 9352
? 21253 32875
? 15447 40304
? 12462 37475
? 21371 21741
? 27979 34936
? 12394 20806
? 26765 43063
? 18596 35426
? 21571 42943
! 144 6798
! 142 27318
! 61 6913
! 15 26200
! 202 7324
? 19725 51787
? 9419 34671
? 16678 40959
? 2932 22672
! 355 4618
! 204 16220
? 12772 20144
? 24960 26585
! 90 4466
! 61 21450
! 382 25740
! 69 31387
? 10007 41469
! 267 20080
! 95 16669
! 372 11060
! 149 26281
? 24858 27632
! 301 5257
? 31579 64041
! 243 15302
! 295 12285
? 786 30096
! 286 763
? 5998 28094
! 349 30724
! 348 8489
? 29901 39361
? 1091 7717
? 24099 27450
? 17873 41500
? 17258 45342
? 8163 19513
? 8038 18181
? 22166 36155
? 19893 23280
? 21806 43501
! 81 22953
! 245 13699
! 342 16668
? 23342 38363
? 16113 29311
? 29809 30481
! 63 25159
! 212 418
! 51 11756
? 2042 22591
? 24639 34394
? 10408 42357
! 172 1221
! 42 19358
? 21607 45845
! 149 30481
! 367 28658
? 9750 24430
? 3507 21513
? 3580 22828
? 31028 56833
! 207 6276
? 251 9079
! 270 18522
? 19790 39532
! 289 26536
? 18532 37382
! 321 7895
? 26420 50811
! 64 26657
! 90 22706
! 232 20751
? 30441 31380
! 55 31679
! 8 9096
! 181 25793
! 162 29540
? 20522 51403
! 256 11457
? 26926 47536
! 92 31781
? 9661 13582
! 117 12485
! 340 24952
! 182 5483
! 70 7965
? 14258 18370
! 294 5456
? 9205 22238
? 5294 10594
? 24209 33625
! 347 9349
? 8017 8069
! 381 12041
? 24599 44948
! 152 14547
? 9483 38585
? 31405 49423
? 20026 38261
! 60 3064
? 11563 33756
! 241 29122
! 42 30935
? 10016 37324
? 21653 44434
! 200 9849
! 255 374
? 30712 53211
? 31274 36748
! 241 11784
! 4 4191
? 22495 42016
! 91 14769
! 277 3642
! 238 15365
? 435 20369
? 17308 38779
? 24953 41207
? 6516 12226
? 31107 54718
? 17559 33553
! 308 19850
! 71 3113
! 172 27780
! 183 22098
! 262 15918
? 30552 54183
! 281 29191
? 25043 50993
? 4708 27864
? 1700 14332
! 151 12019
? 17988 46394
? 25963 39788
? 19244 30254
? 22057 40828
? 9739 28479
! 329 4264
! 364 25278
? 2829 27481
! 232 12195
? 592 28825
! 197 14203
? 6771 14346
! 240 15147
? 23039 23283
! 6 27829
! 85 32571
! 160 27452
! 309 16699
! 49 26815
! 130 21899
! 201 11327
? 4606 25294
! 18 7759
? 6559 19204
? 4879 6730
? 21749 22624
! 21 27979
! 220 16044
? 25630 51940
? 17941 28651
! 31 1746
! 356 18174
! 19 7472
? 4098 35673
? 4425 12757
? 10247 32960
? 29888 36010
? 29616 44276
? 1321 2144
! 282 20022
! 151 27709
! 254 26849
? 18368 34858
! 131 12603
! 118 10536
! 105 16252
? 14387 21471
! 144 14020
? 15678 22485
! 97 7370
? 15678 45047
! 76 20215
! 228 27085
! 38 12162
! 376 12563
? 19661 21039
! 34 18187
? 13876 22125
? 30504 37357
? 23160 34802
! 46 2176
? 32025 56217
! 49 31359
! 235 5971
! 139 27253
! 156 27710
! 240 32463
! 368 18585
? 11823 35558
! 159 17223
! 72 21179
? 32657 62821
? 6888 9263
? 24326 36938
! 6 15752
? 29605 43912
? 3585 3650
! 140 17862
? 2773 24728
? 29947 44716
! 52 13579
? 2176 14114
? 31669 36684
? 20433 43527
? 121 14646
! 21 7828
? 31477 51520
? 31392 63826
? 17563 41585
? 20188 26860
! 209 28954
! 131 4397
! 185 12577
! 212 18026
! 62 29495
! 174 26408
? 29191 58850
? 31419 37347
! 277 24351
? 2212 5450
! 357 818
? 21758 51876
! 374 29984
? 4655 16786
? 25686 48433
! 318 16109
! 96 13609
! 312 9804
! 95 4368
! 267 13260
! 220 23508
! 244 20797
! 182 8621
! 273 14143
? 12675 20530
! 189 19714
? 17917 29861
? 26985 57448
! 287 13267
? 4016 18237
? 32506 42674
? 7107 30250
! 253 28831
! 15 120
? 11452 18429
! 306 21387
? 4213 7240
! 60 439
! 39 27263
? 31372 59678
? 8084 28265
? 29586 53295
! 156 19187
? 366 15562
? 12711 29669
? 25046 47343
? 11172 27829
? 11531 39515
? 23242 31857
! 77 13609
? 19811 19852
! 197 19846
? 7191 16073
? 14910 34010
? 2819 26264
? 31640 54956
? 26337 49724
? 16564 33221
! 313 13606
? 6839 20595
! 83 21376
! 71 20012
! 183 5320
? 19907 31866
? 9326 12826
! 83 22038
! 380 21883
? 2949 10080
! 222 4908
? 31367 45245
? 6302 11282
! 261 18676
! 193 20300
? 14774 28138
? 32125 50447
? 6703 15758
? 15525 33428
! 301 19758
? 4810 20169
! 55 31722
? 14048 43066
? 9201 34085
! 277 17961
! 16 31467
? 26153 47458
! 339 30474
? 16613 45763
? 9471 18333
? 10245 11510
! 61 5150
! 204 2509
! 339 31684
? 32396 53686
? 17892 43689
! 114 10525
! 99 18552
! 331 12444
? 20857 33333
! 39 16997
? 26949 49816
? 22406 25501
? 25666 48160
! 171 18391
? 29776 54546
! 31 21977
? 15142 36425
! 206 24744
! 154 24744
? 18838 35232
? 13980 44149
? 24511 46974
? 29471 33102
! 271 1691
? 16593 44022
? 25919 38114
! 185 18420
! 79 19009
! 346 11197
! 191 1951
! 153 31314
! 171 19147
! 54 26590
! 380 15927
! 359 3596
? 20922 24164
! 378 8594
! 93 31950
! 4 15649
! 177 13764
! 230 29479
? 30674 36968
! 33 27115
! 190 11632
? 17991 33839
! 203 29884
! 54 21625
! 304 19412
! 69 15651
! 205 20940
? 5635 24624
! 74 9319
? 3307 17983
! 79 13930
! 234 11162
! 185 14272
? 3388 25841
? 8455 32313
! 7 25752
? 22468 28771
! 161 16876
? 23147 44633
? 17082 30049
? 4739 25281
! 140 8714
? 13739 28069
! 20 21902
? 9838 13383
? 25641 37617
