49 69 11
3334 17362 9444 21435 27067 13854 1024 9897 26991 29133 13263 13544 4850 28866 23481 2316 1052 24768 7302 658 6407 32207 4396 9061 4987 27618 20965 22183 22186 21430 11653 5295 2846 18173 3339 2126 16111 12220 13686 6487 22073 20210 23514 94 24525 3706 16306 18367 8743 10802 16248 24035 29857 29789 7027 7358 14566 14662 23249 27292 2216 1575 1781 22558 27542 22344 12562 24447 10632 
29035 30201 10524 3325 27240 29743 31028 10696 9493 26691 10988 31750 17512 25438 23702 29523 23008 20508 12594 15934 21280 14746 19253 27130 27358 2257 25738 10838 8443 11298 10199 24046 32243 23857 12033 8867 9592 30967 19186 3658 31834 7699 30874 24481 26026 1377 10035 15239 23327 18638 13258 19052 25784 3179 15867 18950 13219 15808 14844 26437 25694 23906 25565 29834 11292 1736 30733 20500 30058 
10842 21793 3770 12306 11723 27345 16096 22592 26281 6723 22436 30947 9010 27533 10328 11606 13674 15477 23605 26176 13418 19578 26189 30137 26619 18969 27074 9902 4707 17737 29238 25478 3199 11080 4226 12293 26642 12185 12203 31345 3165 17998 13842 2036 240 4995 18154 66 23231 29739 14319 23675 32632 1039 3925 15699 13076 17683 7679 27760 9133 19387 2546 3348 26511 5359 23817 16379 8593 
26875 27626 16007 16294 28634 10552 12570 1967 23220 14603 17603 26259 18085 22685 17438 13714 15552 28230 14197 27094 29524 21930 20523 25163 13421 15409 9051 18353 3486 8631 30652 13040 11518 20869 10952 3499 3953 26496 28957 24855 25641 13729 30243 1806 18796 7589 7919 29023 18071 13062 29799 31593 10083 14633 30887 31208 7271 20953 27556 32014 17630 28660 17167 30934 1451 25188 22909 18325 20890 
2897 6340 15057 18153 6037 9128 11863 17927 19057 17079 20872 26011 12670 6257 6900 26568 21734 24748 6698 5295 14291 16183 7117 7734 15656 25022 21483 28936 17520 30957 651 5854 4883 19672 18053 3580 24016 28827 4759 14846 1639 22845 30900 20948 24982 23515 16287 28428 6471 22274 30393 8783 32520 2908 31768 12591 25275 26511 10456 24864 16783 19298 6070 29635 24879 1570 14810 14443 11065 
5188 11765 22234 23793 24651 3468 14155 24375 2796 9364 11190 23222 32368 18238 15951 23647 20827 14868 18767 7702 15435 24645 15352 18346 10018 9277 12499 15371 4455 20089 14653 18103 23018 16026 545 15734 10663 15032 13831 27207 1517 18680 16462 20890 19904 18273 21941 10431 9851 13803 26145 4255 7098 26329 23450 26794 30326 2377 19094 19984 3954 16906 30586 6964 8406 18093 21854 31582 23322 
11999 25104 26287 16678 28662 860 6747 4024 14025 18827 24850 13317 5061 15146 16319 5539 11581 3597 23157 14246 27650 29075 9638 29962 22068 20010 14231 23633 3159 7702 19984 28268 7337 17263 23640 17631 8371 32617 13665 25377 22815 28377 9791 14145 15305 12276 5342 3535 10265 5465 30453 31994 13711 2642 13622 2806 20639 3158 20168 5025 6592 24019 20726 12645 15040 22059 30505 11616 9818 
29436 1811 15042 30218 3749 15662 375 23072 24582 23909 15367 20500 10119 15376 27834 4889 11611 21286 28159 31476 29958 14254 25102 15631 18972 887 17869 17353 2636 1801 10992 4113 20638 22491 23909 22835 26105 3783 30703 24305 6888 19130 11281 8662 28317 19376 16685 30151 10039 14816 3821 8923 16192 27955 30434 2157 19578 18683 8555 30319 17371 32738 473 12544 16086 21536 26064 21057 9692 
10226 5104 32357 25635 29255 15797 7688 2214 27580 18588 4802 30829 1994 12936 6651 5646 3646 5475 20993 628 26858 3592 5463 23263 31131 2657 8273 6188 3147 17100 13533 29527 14743 25284 12452 29502 19827 9405 18770 1959 1564 25935 25393 21893 16206 29079 13821 6263 23992 5339 13300 15762 3757 10604 26412 7008 12316 12497 14633 27432 29890 14113 22703 26480 6302 1457 12757 13249 14757 
26863 11355 29098 10424 3470 9277 9991 18131 14564 20616 22916 17031 24720 3181 860 18858 25951 13972 17767 845 30065 6835 31315 26094 22935 6494 3889 15855 12800 545 17716 30791 26133 21452 16566 1400 19361 22286 2428 26817 18741 18245 24635 18324 30667 32149 3419 3402 1961 21047 3322 30486 27784 10260 15412 7223 5366 22163 27554 18034 12537 26031 31520 11968 19445 20556 25300 29252 15823 
16587 19820 21375 14163 31708 10150 7111 28115 28051 18710 12533 10769 3263 6692 13151 15968 2167 23380 14342 10245 29685 29130 29456 24547 25768 23821 26232 7768 13956 14859 26884 5730 27293 30557 6519 27654 21492 7885 4616 27122 1680 22549 28692 14945 15569 2282 1040 10047 9986 13881 15809 9613 22829 2737 10415 12296 19251 9857 3287 13573 7963 7267 1952 7072 8619 16345 12560 9237 14645 
10422 8512 10094 14004 4065 27149 31327 15640 26966 22801 30574 13021 24429 5586 29782 29154 4959 28728 9902 10617 18182 29509 15302 9914 21476 4096 10194 30494 4967 29874 28746 6473 7275 25685 30096 12326 31233 8778 32724 27705 16239 17994 4917 7985 7544 3231 20264 11709 23773 30356 23838 21409 25123 20266 12897 28169 7831 26636 10559 16413 4752 8901 13675 26069 17652 6705 14240 26895 21501 
49 13447 11487 829 931 29403 8998 27360 21138 17611 102 11314 3241 160 25044 20321 14830 27807 6575 11907 6573 8753 5585 4570 23985 11329 5252 24919 9658 25830 7062 3934 20268 22082 26032 8393 27909 8874 14819 30255 31761 14342 24964 14950 10081 21115 12346 6726 12537 4680 21077 10672 21193 10478 21857 6607 11231 24980 7931 9374 3546 2217 17892 20907 16034 30411 340 30746 598 
17128 8849 8684 390 24483 19647 13442 24483 10233 24314 604 5555 7972 17570 10791 25929 26559 8182 26359 30645 13868 741 13777 32120 16947 10784 29804 25083 31723 28276 23864 26496 2014 24663 1184 16216 18024 16833 15244 29270 27232 21053 31531 11653 25338 8511 15855 18198 7404 23224 27097 3996 24272 16872 12278 17276 17610 20083 1322 12446 8042 8120 6188 25705 14804 14942 26834 30191 19230 
17455 25743 16484 5881 12842 11322 8661 404 7379 26384 4630 6845 11982 18173 9725 25674 25004 8727 21197 22455 32005 17771 1525 28432 3015 25853 25851 13585 15309 19722 18867 8333 23476 14480 20148 16140 27370 28945 12 29368 28679 7059 1075 18298 2401 22251 20798 9056 27610 3899 16981 22082 17405 10938 8551 19621 11594 29619 31004 27103 13261 25553 17164 19836 5110 13465 17966 2017 11428 
22840 14739 559 22403 17791 32596 7530 7064 9772 3017 19675 28186 28267 19707 12210 30084 24220 9820 28144 744 26711 21686 23684 13702 5037 20066 11444 31901 18865 29626 10943 27521 10296 9168 20417 5102 17116 2401 10966 23196 30023 13316 25986 31251 10926 20903 26449 10177 16027 7228 23738 3914 23280 20400 9545 6175 30505 15389 27902 10578 23777 18496 29936 24489 21911 30765 20277 27121 26035 
19521 4614 32660 14532 3161 17951 9582 8972 21313 5221 13533 23614 28272 30411 22807 22406 26098 28790 30401 23754 16549 4384 12733 18224 22696 18362 1347 3296 21521 18517 8755 29707 5598 2370 1961 6444 15151 7032 2514 10893 30898 25143 15103 32013 27742 28139 27384 24098 14180 32339 12435 18202 29794 28642 12677 21926 24026 6246 7287 11672 14564 22247 2397 10220 22559 23250 13315 29445 19181 
26199 17640 2106 3296 4111 7248 6801 18799 18402 21397 25290 2030 9000 26814 27808 21437 13326 18514 18763 13503 28731 10607 19273 3085 27316 28694 12126 10476 25853 2505 22234 10749 31618 30808 30490 32436 28981 32504 25169 7435 24183 9621 19849 16248 18236 1641 14308 16156 23658 6606 22312 24125 27779 29776 11642 5878 18308 11015 11370 16941 6669 21028 2352 10950 961 18889 9781 24854 27888 
19742 13782 25243 24436 30625 31332 27114 26328 13501 18287 31464 15296 19871 10308 32573 16004 2373 20404 1798 1311 4823 13591 458 72 6715 657 944 31710 25316 14484 27375 32393 13546 10918 31109 19615 25696 14693 14124 4676 25314 28104 12170 30934 3949 22951 24744 11144 14451 24958 28069 3916 1071 21358 27052 12791 13111 28548 20259 13471 29008 17726 30501 13640 10373 2635 9523 31680 2683 
20115 31526 28104 17407 12663 26984 3700 3809 31834 28516 3285 5637 18016 16443 9685 24503 1397 8121 23905 12863 12434 2951 21198 9909 22331 1186 13429 24087 21069 3339 5793 3225 29174 11713 12716 20284 19717 6380 19300 32674 5476 15451 20403 31265 5602 22576 23680 2582 15670 28122 17616 28796 23105 6980 20273 14525 28052 13900 13144 20423 13362 15479 6921 4451 20375 27363 10807 16322 12025 
4733 21101 6489 7629 31859 30060 240 7053 29421 6934 27637 24761 16888 16010 2837 13596 17602 30353 24846 31568 21261 32057 15294 5508 8926 23231 17280 1917 29301 14258 5305 31195 3714 6742 6062 670 2198 4935 2713 22248 12760 7518 29179 18948 11769 13528 25395 15784 12906 27061 23888 26487 17868 29023 9252 4042 5032 31628 20889 11696 10336 20069 4425 1076 10597 28136 14920 9438 23979 
21131 15172 31612 6746 29474 3281 18209 26567 9730 7678 9327 29346 7527 28460 3346 7537 787 20256 28813 17980 30520 28246 19001 5258 30360 15512 22666 25485 27627 17616 22933 7322 28801 31515 28879 5596 40 12574 6680 18760 9296 9373 19960 30675 23149 23625 15144 3299 14749 18138 14676 22020 7051 20574 22815 25309 19603 25041 13672 8546 1831 32493 27083 2635 15985 30275 21099 29124 31801 
22411 30959 20582 22026 9273 21195 6246 15760 28241 13505 27404 12357 22907 8103 16999 2637 12890 19050 25408 157 4122 3411 11084 1635 13384 4745 4005 8610 7399 28632 24443 29469 31936 3504 7943 30071 3577 32625 3777 14232 29417 12517 13011 5715 6443 3342 28365 14661 21233 547 2458 22272 6811 1749 11699 1129 13449 1238 14738 4958 9005 19612 29802 17564 8548 30307 31509 20704 5894 
21617 31054 3405 15291 23197 800 12046 23569 7954 8862 29244 29900 22609 28117 10242 6270 31861 14591 28671 21335 26043 14586 8427 317 8257 10744 9342 18975 17678 20087 19085 14471 1619 23156 22391 7791 20720 7899 20927 15446 10042 2371 21242 24211 6396 19416 24556 25832 31932 16792 3054 26714 20031 25283 27538 29504 22095 23948 6794 32667 32699 10005 22726 12197 32160 6298 733 29869 9959 
27885 27054 6177 11023 12834 19783 23277 1068 907 32518 7939 18992 8167 28413 20283 19306 12246 10395 31070 3660 20624 649 20093 8305 14039 1491 32136 22239 32298 20552 7196 25481 30780 30243 4507 25624 4260 9963 14466 19946 6358 6551 10743 23387 4178 1014 26530 24132 15643 8526 22462 7106 10347 3140 18288 5433 21413 28667 26455 25240 14731 21632 30308 478 28593 2662 3820 16349 31793 
31149 18939 7741 13217 22505 11500 23237 13122 2463 5430 31702 19322 13043 5769 1592 28293 15232 32538 16410 30567 18824 30267 9555 23845 30797 26926 28910 9780 19902 14907 24550 12338 13142 26112 4398 8148 30274 4873 9972 3360 4802 16288 3367 16348 20177 486 2359 4166 26632 3619 30492 16389 22720 30555 22425 24416 30839 24098 5058 4782 31605 432 6588 19469 5550 26424 14020 19799 17643 
2934 21106 1618 1573 21128 28479 8999 31281 10750 5190 24342 15779 4404 1095 28519 30700 31712 26097 6820 26053 17127 16737 20485 25297 6005 30438 21292 13949 11340 4871 20498 10284 2396 9159 27458 7825 15764 29479 8773 20059 25337 19181 4189 15384 10485 9636 27510 5459 22769 28900 19801 9472 2342 17619 7459 26395 29103 13548 11509 32651 6115 7679 24558 6220 17379 5497 27734 27341 29807 
24038 3612 30871 17662 1204 15747 14128 31245 3386 15896 13119 10167 19705 6631 28400 9862 23841 23790 32666 19081 17751 9426 11936 4262 17333 22737 8597 13874 22034 7672 19875 28351 26756 23446 14893 11317 19748 25584 22195 11557 24849 5430 26614 17753 696 1718 20573 5296 15698 5712 14232 8233 19885 27178 21891 317 25648 15013 25677 8050 18458 30863 32217 10285 16394 9114 26724 14535 25540 
25868 5737 28388 15154 17081 24001 21248 20137 32302 10767 20811 3182 29744 11867 13495 10105 4197 23037 22607 21368 10576 5309 714 535 22659 1592 8288 1407 8975 27782 20188 15388 1600 17945 28659 10660 15495 21224 13780 8533 20152 12493 24064 25982 17781 5932 3676 24640 3818 30166 2180 22934 27836 31533 10083 20115 32315 17800 23297 19947 15071 17369 5787 32181 28914 2445 25849 11887 7306 
6579 5884 8003 10938 28001 16503 22408 32009 14675 30527 14732 16675 14038 2182 12945 28879 29668 6244 11285 3617 28305 24503 8791 28657 32678 31789 1046 12940 22667 1695 16284 8360 6250 25505 8443 10398 15505 599 26007 12755 28696 32138 10468 26231 32452 21242 3697 17779 28460 9462 19750 4252 2074 14891 32714 27437 17716 12218 24263 15476 32476 4493 18226 10955 18772 19690 13062 17098 20262 
12616 1712 7867 10947 29538 22481 8782 874 26251 4415 7823 29003 24641 6221 29204 27885 31236 22348 31099 19917 9577 20817 25620 7240 18026 9017 16602 15034 18432 5611 22440 10728 24308 9693 8873 27803 28401 9178 31761 20110 17887 21250 21514 4746 8556 10258 753 19408 13035 3557 3011 26295 5474 21307 25298 9366 27102 9658 3261 3812 3594 15922 10654 9630 8448 8741 16517 19689 19039 
7815 24358 15865 30622 24514 25038 32561 928 19197 30620 10124 31880 31902 14061 28987 31694 4109 22040 24464 17555 5307 23644 31770 7217 21604 24342 28434 4375 20113 7991 30453 9172 3424 6902 883 1649 14215 26562 30600 26116 919 26747 22249 29314 28798 13281 25249 6357 26448 16205 26876 9006 10823 8607 19620 13213 13576 631 1802 19679 29223 2472 10759 23927 27118 25321 9412 256 20058 
10702 20439 27585 2151 20983 1198 13442 10893 24456 17457 28830 27787 984 12451 22106 5219 29294 24265 22901 28838 553 16975 30208 18417 28350 14695 7536 25016 20072 31667 31218 3138 4058 28773 31742 17397 5241 12197 26159 24532 15048 13107 19282 26438 27939 31309 12989 29977 2225 9427 22242 19398 12436 18857 12835 32503 24930 3165 19944 22086 22745 13833 2031 19784 9678 21883 16868 21706 29799 
10900 12082 14682 27274 24814 13592 21258 10389 24001 4351 25200 16976 9480 14603 16113 17440 6623 10992 14912 6269 7728 7431 23841 24997 21902 17825 24947 7058 3937 11419 3437 6698 7236 15154 21544 14263 4779 32281 24413 18326 18121 19913 26225 8499 31153 20761 30382 22325 955 3598 4308 28405 32297 31988 16336 11317 12298 20909 3275 17679 16991 28490 29798 4651 32637 14808 16708 3893 8626 
14972 28618 16270 29995 18883 32546 19266 20757 13363 21382 26683 11267 3366 3515 25524 20368 9176 31707 24560 28485 20158 1880 6699 9917 281 17470 19665 8966 24268 1464 494 31563 17002 7126 27109 31920 27028 7821 2662 28030 15234 27136 22938 2944 24031 12285 6560 18861 3034 17099 2109 4358 25466 32035 14031 2242 7473 27516 7811 10665 25013 6796 17608 8382 12811 12043 1028 17696 5604 
10938 19589 9522 1069 676 29114 28410 14818 27299 22435 14279 29475 31271 5254 26391 14985 3635 23268 18615 17082 3240 16299 2604 32315 27846 12461 10066 27014 10480 12113 2627 15197 32175 9096 25210 28509 6650 23299 30521 24278 9397 2212 31015 23514 15223 22578 5950 660 20112 27216 23268 13531 32331 19632 3928 29703 23920 17028 14416 3332 15629 28981 23521 19109 25974 17752 9118 8762 24715 
9182 6404 3684 14649 15242 278 3112 21572 2729 6980 28227 17987 27901 18321 31421 19180 17914 22517 1729 16785 6965 4352 1196 21227 13081 7617 14436 9239 3035 31462 1515 15070 16049 7460 3636 30521 9023 22234 3637 17940 18258 16625 13373 29011 3793 11014 24456 12563 4081 22219 32273 25138 32679 682 31911 1553 16995 1964 32067 28568 29947 3738 18329 16763 485 8290 10221 8636 5802 
5563 12328 18034 3479 10764 3883 16328 8118 13706 29283 9032 29437 21153 9629 31834 22724 29334 25884 9735 20605 9578 5609 29187 8863 6401 22635 16619 10211 4996 10551 28619 4275 27907 1065 16099 16607 19551 15796 5547 5011 11111 1654 18452 7046 26177 19728 16657 13171 23052 29236 13910 29389 22211 768 18783 23215 26724 28042 14773 20242 15186 25532 3181 12354 8184 24674 19697 10387 29104 
641 19203 591 25827 13034 31230 6644 113 18448 21855 16540 18003 7191 28293 8893 20351 18733 1973 1810 24331 29 24673 31193 12438 11553 5802 14399 1508 24312 16931 28697 14280 9273 11224 10196 20039 21223 18319 25263 25594 28229 21069 21799 22708 7916 14876 15795 5989 28954 13068 13746 29502 19789 7544 3746 24598 24337 8586 3986 2573 24086 9217 9946 4207 28037 30770 25609 26587 1428 
29517 19999 10148 7001 17634 27133 18039 31451 14500 1305 2622 1903 17772 6262 12101 22082 3457 22484 2715 22322 13334 16676 11196 32738 11284 16446 16748 11533 25626 15062 17894 11802 29634 6316 13878 12017 11815 7172 22756 29710 15780 7766 22482 7379 11486 1350 12647 24611 260 982 17645 30508 18773 31707 32312 10884 18403 5038 25737 13688 6039 21539 4274 29601 29558 25279 20090 3256 802 
11301 27970 4778 20644 4818 1001 17903 19304 30218 11246 29720 31881 9490 30676 9384 20560 4768 10443 2085 6391 23696 26508 23919 11954 31704 1157 16720 20720 12478 822 7251 11485 32585 29915 8922 11564 20469 26187 7019 30485 2218 25888 24395 14489 12783 24600 18766 11277 31836 26299 1773 29910 14925 3134 32665 14706 8670 29096 17999 7864 27411 15155 18797 2144 7766 29941 13508 17093 10023 
10943 14830 31210 32527 14150 13025 8635 1237 3712 21189 13206 21493 1873 22787 25866 12366 26727 31391 15327 23067 15459 30151 9046 24100 12601 940 26289 13878 1753 7312 13558 19920 20751 16928 4593 16159 4263 17413 22648 23596 26582 12982 12787 22613 28117 29840 10011 9722 26063 12584 11777 23672 23805 1760 22866 14939 29712 16056 3290 6095 22479 29287 23368 23896 11521 22699 28977 21187 29581 
11229 12631 23133 9440 24264 26154 27746 4495 5051 11407 26296 16957 2525 31713 1245 24512 29889 28469 5151 26239 29242 13283 14347 10526 4721 16706 21287 26206 9780 15794 26596 30270 18321 13536 1486 21095 20644 837 5894 32198 13485 6896 8690 3963 28517 1414 21299 25842 32403 18311 25559 16207 6618 2258 12240 20496 7381 9836 4261 30957 22374 4477 20584 17155 14410 8091 18664 20786 1521 
12363 807 20932 6541 19397 27407 13135 20586 7928 27488 8412 10109 30926 1517 2376 13631 11441 15368 13803 30140 32334 23355 13432 7398 31385 569 6180 25392 25105 29203 22027 88 2117 32687 16591 18564 19607 14711 26498 8081 4160 5454 23494 13992 19860 15048 9010 18450 13447 15770 22520 17741 28785 23631 15557 11103 31502 5949 18409 29034 8393 13240 27064 17793 6714 32645 4656 3002 24301 
26769 14812 21380 5477 15587 29175 14139 17504 9936 16341 23034 10589 14702 18303 30641 22620 8523 2462 15223 2277 19806 14490 20513 13387 9277 26882 24339 26930 6545 8495 29014 30799 14279 3108 26347 24175 29193 21433 30815 4027 21101 26105 30368 2106 22636 10696 15631 17815 7061 26313 2518 3621 1666 25726 12412 10528 15884 1201 23223 27702 2235 23827 19329 16965 19072 5156 22637 3943 26791 
1362 3388 5676 10759 28773 11691 16934 26492 14362 2448 31659 8343 29710 22309 26838 18579 23006 1956 16335 24459 16781 18964 3660 11243 18726 12386 6744 10277 23458 10931 16468 30885 7947 19705 29243 32262 3554 4804 15402 22406 16319 5468 29215 27063 9527 26636 27392 15736 15106 3776 27872 19236 30813 17107 11903 1545 31918 31266 4623 15388 16487 25701 32062 7658 19756 21183 29296 722 16696 
15763 20300 15730 8701 23706 21627 5215 16906 1330 23212 13081 15922 17145 22748 10046 21995 24219 8148 15869 8948 18152 28403 21966 29755 4138 17965 30816 20477 32181 6484 20691 24879 18879 18582 21032 21533 8050 584 8694 26193 31552 29154 7006 11702 25975 24650 32320 23293 15125 10581 7855 31552 30941 10891 10403 31973 15530 3882 19438 31686 28932 7534 25714 6286 22257 26896 29328 24422 25101 
3852 30692 466 6877 24232 3119 26581 31585 5042 16020 23644 31208 1545 5896 22746 13864 29279 19460 13359 31886 16444 124 14542 5075 26950 7701 26143 2256 26049 8083 24866 27795 16978 24464 22614 14514 17160 16244 24281 19935 14236 15009 720 16573 25848 14830 8969 26867 10231 15191 18399 26238 13676 8691 862 4427 7013 16934 7336 1797 26545 32279 2711 19244 6047 1636 420 11623 13577 
4885 6408 27163 17553 10447 19233 14652 26923 15946 21782 16227 24796 22021 14782 5409 16065 24633 27582 22676 1618 30987 25330 32055 3048 22277 8463 19966 15997 32199 27014 21923 16051 2298 12459 8506 26392 9094 1558 4364 10665 32517 32329 11170 26261 24439 24468 10016 8259 3895 5686 7381 12437 20270 13253 6927 25455 5958 32208 2356 6771 15137 20418 4622 24079 18188 21513 2151 32698 10542 
