674 899
194 863 878 893 894 894 895 896 898 898 899 899 899 899 899 899 899 899 899 899 899 899 899 899 899 899 899 899 899 899 899 899 899 899 899 899 899 899 899 899 899 899 899 899 899 899 899 899 899 899 899 899 899 899 899 899 899 899 899 899 899 899 899 899 899 899 899 899 899 899 899 899 899 899 899 899 899 899 899 899 899 899 899 899 899 899 899 899 899 899 899 899 899 899 899 899 899 899 899 899 899 899 899 899 899 899 899 899 899 899 899 899 899 899 899 899 899 899 899 899 899 899 899 899 899 899 899 899 899 899 899 899 899 899 899 899 899 899 899 899 899 899 899 899 899 899 899 899 899 899 899 899 899 899 899 899 899 899 899 899 899 899 899 899 899 899 899 899 899 899 899 899 899 899 899 899 899 899 899 899 899 899 899 899 899 899 899 899 899 899 899 899 899 899 899 899 899 899 899 899 899 899 899 899 899 899 899 899 899 899 899 899 899 899 899 899 899 899 899 899 899 899 899 899 899 899 899 899 899 899 899 899 899 899 899 899 899 899 899 899 899 899 899 899 899 899 899 899 899 899 899 899 899 899 899 899 899 899 899 899 899 899 899 899 899 899 899 899 899 899 899 899 899 899 899 899 899 899 899 899 899 899 899 899 899 899 899 899 899 899 899 899 899 899 899 899 899 899 899 899 899 899 899 899 899 899 899 899 899 899 899 899 899 899 899 899 899 899 899 899 899 899 899 899 899 899 899 899 899 899 899 899 899 899 899 899 899 899 899 899 899 899 899 899 899 899 899 899 899 899 899 899 899 899 899 899 899 899 899 899 899 899 899 899 899 899 899 899 899 899 899 899 899 899 899 899 899 899 899 899 899 899 899 899 899 899 899 899 899 899 899 899 899 899 899 899 899 899 899 899 899 899 899 899 899 899 899 899 899 899 899 899 899 899 899 899 899 899 899 899 899 899 899 899 899 899 899 899 899 899 899 899 899 899 899 899 899 899 899 899 899 899 899 899 899 899 899 899 899 899 899 899 899 899 899 899 899 899 899 899 899 899 899 899 899 899 899 899 899 899 899 899 899 899 899 899 899 899 899 899 899 899 899 899 899 899 899 899 899 899 899 899 899 899 899 899 899 899 899 899 899 899 899 899 899 899 899 899 899 899 899 899 899 899 899 899 899 899 899 899 899 899 899 899 899 899 899 899 899 899 899 899 899 899 899 899 899 899 899 899 899 899 899 899 899 899 899 899 899 899 899 899 899 899 899 899 899 899 899 899 899 899 899 899 899 899 899 899 899 899 899 899 899 899 899 899 899 899 899 899 899 899 899 899 899 899 899 899 899 899 899 899 899 899 899 899 899 899 899 899 899 899 899 899 899 899 899 899 899 899 899 899 899 899 899 899 899 899 899 899 899 899 899 899 899 899 899 899 899 899 899 899 899 899 899 899 899 899 899 899 899 899 899 899 899 899 899 899 899 899 899 899 899 899 899 899 899 899 899 899 899 899 899 899 899 899 899 899 899 899 899 899 899 899
268
111 430 462 695
15 395 571 437
583 537 636 596
256 700 375 886
273 263 295 649
253 601 370 758
285 470 415 485
648 317 666 616
102 535 155 567
630 342 640 483
316 845 455 878
261 33 575 315
158 393 243 420
260 290 513 407
158 270 196 317
13 84 563 307
96 882 256 882
200 709 392 821
464 368 479 581
410 835 539 877
670 649 674 791
269 566 366 811
282 491 588 642
204 819 394 871
369 234 549 590
520 898 588 899
335 656 490 852
258 599 458 893
511 182 604 314
325 438 492 737
654 681 663 717
236 405 460 816
448 301 509 370
501 70 672 696
314 182 583 590
619 154 634 242
265 107 345 401
95 629 448 858
33 472 129 559
85 618 96 620
372 548 495 730
644 166 660 299
149 370 338 824
333 751 340 782
189 304 240 426
279 65 524 143
667 433 670 498
91 575 428 899
308 121 660 633
126 19 431 457
667 311 668 718
225 328 569 851
335 845 615 862
49 683 519 863
467 672 603 875
584 877 626 894
276 35 475 710
199 589 278 808
75 761 136 816
180 450 197 616
354 716 577 862
267 861 550 891
475 888 575 898
55 738 183 752
296 352 321 657
443 199 572 233
351 627 359 855
7 779 567 846
353 657 633 789
503 420 669 570
297 119 517 691
146 236 615 371
359 710 387 889
359 513 454 719
296 607 532 769
278 481 456 845
278 124 434 148
91 57 420 380
69 778 244 796
111 745 174 773
356 410 593 472
442 802 453 804
51 101 641 479
489 544 523 713
213 200 634 776
352 793 521 835
563 377 656 810
241 866 443 882
499 778 605 881
355 767 455 768
226 880 598 897
557 674 619 700
58 715 66 759
532 661 588 681
478 277 491 870
341 878 601 883
665 123 672 365
652 861 673 894
526 513 587 830
604 771 635 803
369 790 527 803
280 489 305 501
573 399 587 587
165 841 445 866
236 391 335 895
3 312 607 350
491 506 493 736
554 367 649 864
505 688 541 761
502 896 564 899
266 7 331 660
18 182 261 678
485 149 548 217
209 623 596 832
563 664 673 815
195 878 306 896
448 437 606 837
315 889 670 894
580 44 639 613
505 351 597 377
122 785 188 857
624 610 627 849
48 613 575 720
105 413 594 424
319 187 345 683
111 9 442 119
91 331 339 437
359 879 386 895
66 637 271 665
221 835 432 837
614 346 654 870
214 225 288 466
547 848 633 853
410 172 466 596
656 252 657 457
590 116 670 742
29 362 333 842
114 110 449 785
59 297 400 488
600 343 649 619
193 260 369 531
662 668 665 671
340 393 648 763
639 661 662 805
553 471 644 799
142 246 660 315
530 225 619 899
526 823 537 895
189 382 318 705
394 370 415 374
653 105 667 201
452 339 614 585
119 123 393 190
114 463 131 885
619 343 649 622
419 5 559 212
649 129 671 209
73 536 289 719
47 331 89 724
211 899 446 899
467 254 541 626
381 247 661 312
366 728 462 897
368 567 575 741
309 481 372 824
176 789 634 852
294 382 520 552
621 109 656 720
535 430 637 716
247 599 333 608
195 855 600 858
139 844 621 861
227 690 379 892
470 65 472 378
543 83 667 465
419 132 502 390
504 684 569 794
401 760 600 872
649 576 673 791
90 637 254 817
95 411 621 679
184 255 289 839
97 441 116 803
214 100 517 183
225 809 581 895
12 121 197 345
298 592 391 595
28 763 214 878
244 409 433 697
616 414 644 841
509 136 647 352
143 248 377 380
213 824 598 858
74 116 200 773
606 899 633 899
81 198 535 657
252 607 639 653
462 535 564 842
612 153 670 743
373 16 393 186
660 61 670 198
649 460 662 725
532 474 581 502
165 747 601 770
530 867 579 891
25 413 273 803
563 805 645 872
629 746 667 826
647 255 667 525
611 5 615 679
152 297 554 793
311 164 500 228
592 494 633 612
434 632 641 819
182 15 458 134
202 710 459 895
508 13 530 431
168 299 447 850
223 462 459 670
291 390 567 839
588 590 665 749
284 36 507 183
66 189 418 369
550 394 648 843
136 888 366 893
121 508 152 518
539 816 649 831
76 794 628 814
543 65 602 601
10 849 277 850
489 403 614 580
189 82 302 899
468 371 668 570
328 575 603 825
504 63 663 684
317 210 617 630
622 653 637 821
66 269 562 590
394 536 565 662
609 169 661 644
598 344 605 479
650 890 664 890
629 57 653 538
193 825 374 891
409 692 615 848
265 349 520 427
25 88 362 703
373 110 564 773
30 284 466 712
627 523 629 682
674 237 674 375
10 556 120 805
136 368 622 597
331 637 372 668
657 360 666 397
264 426 588 705
24 878 339 879
514 12 668 886
667 778 669 837
183 873 624 879
109 655 472 680
584 543 607 846
603 263 627 416
663 801 673 857
354 700 623 788
276 206 442 330
391 318 545 626
190 865 638 865
